10J3M/DAT/10J3MNLA-13.dat
10 3
29.3836 863.3959
25.2497 637.5474
14.9375 223.1289
29.3599 862.0037
26.8788 722.4699
26.8949 723.3356
26.3641 695.0658
30.2696 916.2487
16.4069 269.1864
25.7099 660.999
2191.1271