10J3M/SOL/10J3MNLA-13.sol
solution status: optimal solution found
objective value:                     86.0329323297949
x#1#1                                               1 	(obj:0)
x#2#2                                               1 	(obj:0)
x#3#1                               0.356466739635137 	(obj:0)
x#3#3                               0.643533260364863 	(obj:0)
x#4#1                                               1 	(obj:0)
x#5#2                               0.726879714970704 	(obj:0)
x#5#3                               0.273120285029296 	(obj:0)
x#6#2                                               1 	(obj:0)
x#7#3                                               1 	(obj:0)
x#8#1                               0.635536023145816 	(obj:0)
x#8#3                               0.364463886216133 	(obj:0)
x#9#3                                               1 	(obj:0)
x#10#1                              0.324601578960678 	(obj:0)
x#10#2                              0.675398421039322 	(obj:0)
z                                    86.0329323297949 	(obj:1)
